c turning on binary mode checking
c parsing input formula with 202048 variables and 780975 clauses
c finished parsing, read 21772803 bytes from proof file
c detected empty clause; start verification via backward checking
c 53521 of 780975 clauses in core                            
c 84319 of 540568 lemmas in core using 935065 resolution steps
c 0 RAT lemmas in core; 10467 redundant literals in core lemmas
s VERIFIED
c verification time: 5.834 seconds
